p cnf 386 460
7 20 8 21 22 0
7 20 8 21 -22 0
7 20 8 -21 23 0
7 20 8 -21 -23 0
-14 10 16 24 25 0
-14 10 16 24 -25 0
-14 10 16 -24 26 0
-14 10 16 -24 -26 0
-12 1 -14 27 28 0
-12 1 -14 27 -28 0
-12 1 -14 -27 29 0
-12 1 -14 -27 -29 0
-5 -6 11 30 31 0
-5 -6 11 30 -31 0
-5 -6 11 -30 32 0
-5 -6 11 -30 -32 0
13 -8 9 33 34 0
13 -8 9 33 -34 0
13 -8 9 -33 35 0
13 -8 9 -33 -35 0
7 19 -16 36 37 0
7 19 -16 36 -37 0
7 19 -16 -36 38 0
7 19 -16 -36 -38 0
2 -16 -12 39 40 0
2 -16 -12 39 -40 0
2 -16 -12 -39 41 0
2 -16 -12 -39 -41 0
12 -20 18 42 43 0
12 -20 18 42 -43 0
12 -20 18 -42 44 0
12 -20 18 -42 -44 0
-4 18 11 45 46 0
-4 18 11 45 -46 0
-4 18 11 -45 47 0
-4 18 11 -45 -47 0
18 1 -12 48 49 0
18 1 -12 48 -49 0
18 1 -12 -48 50 0
18 1 -12 -48 -50 0
15 -8 -10 51 52 0
15 -8 -10 51 -52 0
15 -8 -10 -51 53 0
15 -8 -10 -51 -53 0
-6 -18 11 54 55 0
-6 -18 11 54 -55 0
-6 -18 11 -54 56 0
-6 -18 11 -54 -56 0
-16 -9 10 57 58 0
-16 -9 10 57 -58 0
-16 -9 10 -57 59 0
-16 -9 10 -57 -59 0
18 17 20 60 61 0
18 17 20 60 -61 0
18 17 20 -60 62 0
18 17 20 -60 -62 0
-13 8 -5 63 64 0
-13 8 -5 63 -64 0
-13 8 -5 -63 65 0
-13 8 -5 -63 -65 0
-8 -16 6 66 67 0
-8 -16 6 66 -67 0
-8 -16 6 -66 68 0
-8 -16 6 -66 -68 0
4 8 13 69 70 0
4 8 13 69 -70 0
4 8 13 -69 71 0
4 8 13 -69 -71 0
17 14 -12 72 73 0
17 14 -12 72 -73 0
17 14 -12 -72 74 0
17 14 -12 -72 -74 0
-7 -4 -13 75 76 0
-7 -4 -13 75 -76 0
-7 -4 -13 -75 77 0
-7 -4 -13 -75 -77 0
-9 -1 -8 78 79 0
-9 -1 -8 78 -79 0
-9 -1 -8 -78 80 0
-9 -1 -8 -78 -80 0
-9 -2 12 81 82 0
-9 -2 12 81 -82 0
-9 -2 12 -81 83 0
-9 -2 12 -81 -83 0
15 3 -11 84 85 0
15 3 -11 84 -85 0
15 3 -11 -84 86 0
15 3 -11 -84 -86 0
-9 20 -10 87 88 0
-9 20 -10 87 -88 0
-9 20 -10 -87 89 0
-9 20 -10 -87 -89 0
13 -16 -20 90 91 0
13 -16 -20 90 -91 0
13 -16 -20 -90 92 0
13 -16 -20 -90 -92 0
-6 -20 14 93 94 0
-6 -20 14 93 -94 0
-6 -20 14 -93 95 0
-6 -20 14 -93 -95 0
9 -1 10 96 97 0
9 -1 10 96 -97 0
9 -1 10 -96 98 0
9 -1 10 -96 -98 0
-3 -9 -12 99 100 0
-3 -9 -12 99 -100 0
-3 -9 -12 -99 101 0
-3 -9 -12 -99 -101 0
-8 4 15 102 103 0
-8 4 15 102 -103 0
-8 4 15 -102 104 0
-8 4 15 -102 -104 0
-14 17 -20 105 106 0
-14 17 -20 105 -106 0
-14 17 -20 -105 107 0
-14 17 -20 -105 -107 0
7 11 20 108 109 0
7 11 20 108 -109 0
7 11 20 -108 110 0
7 11 20 -108 -110 0
9 -5 17 111 112 0
9 -5 17 111 -112 0
9 -5 17 -111 113 0
9 -5 17 -111 -113 0
12 7 -17 114 115 0
12 7 -17 114 -115 0
12 7 -17 -114 116 0
12 7 -17 -114 -116 0
12 6 -7 117 118 0
12 6 -7 117 -118 0
12 6 -7 -117 119 0
12 6 -7 -117 -119 0
-3 5 10 120 121 0
-3 5 10 120 -121 0
-3 5 10 -120 122 0
-3 5 10 -120 -122 0
2 -14 -12 123 124 0
2 -14 -12 123 -124 0
2 -14 -12 -123 125 0
2 -14 -12 -123 -125 0
9 -3 -20 126 127 0
9 -3 -20 126 -127 0
9 -3 -20 -126 128 0
9 -3 -20 -126 -128 0
10 4 5 129 130 0
10 4 5 129 -130 0
10 4 5 -129 131 0
10 4 5 -129 -131 0
19 20 13 132 133 0
19 20 13 132 -133 0
19 20 13 -132 134 0
19 20 13 -132 -134 0
16 11 -6 135 136 0
16 11 -6 135 -136 0
16 11 -6 -135 137 0
16 11 -6 -135 -137 0
6 -9 -18 138 139 0
6 -9 -18 138 -139 0
6 -9 -18 -138 140 0
6 -9 -18 -138 -140 0
18 -2 -13 141 142 0
18 -2 -13 141 -142 0
18 -2 -13 -141 143 0
18 -2 -13 -141 -143 0
-13 18 16 144 145 0
-13 18 16 144 -145 0
-13 18 16 -144 146 0
-13 18 16 -144 -146 0
18 -4 -15 147 148 0
18 -4 -15 147 -148 0
18 -4 -15 -147 149 0
18 -4 -15 -147 -149 0
18 4 -1 150 151 0
18 4 -1 150 -151 0
18 4 -1 -150 152 0
18 4 -1 -150 -152 0
9 18 -20 153 154 0
9 18 -20 153 -154 0
9 18 -20 -153 155 0
9 18 -20 -153 -155 0
-20 6 -1 156 157 0
-20 6 -1 156 -157 0
-20 6 -1 -156 158 0
-20 6 -1 -156 -158 0
-4 -1 -12 159 160 0
-4 -1 -12 159 -160 0
-4 -1 -12 -159 161 0
-4 -1 -12 -159 -161 0
-2 -17 -20 162 163 0
-2 -17 -20 162 -163 0
-2 -17 -20 -162 164 0
-2 -17 -20 -162 -164 0
-12 -16 15 165 166 0
-12 -16 15 165 -166 0
-12 -16 15 -165 167 0
-12 -16 15 -165 -167 0
-6 3 5 168 169 0
-6 3 5 168 -169 0
-6 3 5 -168 170 0
-6 3 5 -168 -170 0
11 15 -4 171 172 0
11 15 -4 171 -172 0
11 15 -4 -171 173 0
11 15 -4 -171 -173 0
7 3 9 174 175 0
7 3 9 174 -175 0
7 3 9 -174 176 0
7 3 9 -174 -176 0
7 -18 -4 177 178 0
7 -18 -4 177 -178 0
7 -18 -4 -177 179 0
7 -18 -4 -177 -179 0
14 11 -10 180 181 0
14 11 -10 180 -181 0
14 11 -10 -180 182 0
14 11 -10 -180 -182 0
-11 14 16 183 184 0
-11 14 16 183 -184 0
-11 14 16 -183 185 0
-11 14 16 -183 -185 0
19 -17 20 186 187 0
19 -17 20 186 -187 0
19 -17 20 -186 188 0
19 -17 20 -186 -188 0
19 -6 5 189 190 0
19 -6 5 189 -190 0
19 -6 5 -189 191 0
19 -6 5 -189 -191 0
-11 -17 -4 192 193 0
-11 -17 -4 192 -193 0
-11 -17 -4 -192 194 0
-11 -17 -4 -192 -194 0
-9 -13 -10 195 196 0
-9 -13 -10 195 -196 0
-9 -13 -10 -195 197 0
-9 -13 -10 -195 -197 0
12 -9 -7 198 199 0
12 -9 -7 198 -199 0
12 -9 -7 -198 200 0
12 -9 -7 -198 -200 0
3 -14 -11 201 202 0
3 -14 -11 201 -202 0
3 -14 -11 -201 203 0
3 -14 -11 -201 -203 0
3 19 17 204 205 0
3 19 17 204 -205 0
3 19 17 -204 206 0
3 19 17 -204 -206 0
20 6 14 207 208 0
20 6 14 207 -208 0
20 6 14 -207 209 0
20 6 14 -207 -209 0
-17 -14 -1 210 211 0
-17 -14 -1 210 -211 0
-17 -14 -1 -210 212 0
-17 -14 -1 -210 -212 0
4 18 8 213 214 0
4 18 8 213 -214 0
4 18 8 -213 215 0
4 18 8 -213 -215 0
15 -1 -13 216 217 0
15 -1 -13 216 -217 0
15 -1 -13 -216 218 0
15 -1 -13 -216 -218 0
-6 -10 4 219 220 0
-6 -10 4 219 -220 0
-6 -10 4 -219 221 0
-6 -10 4 -219 -221 0
1 -18 6 222 223 0
1 -18 6 222 -223 0
1 -18 6 -222 224 0
1 -18 6 -222 -224 0
16 -20 17 225 226 0
16 -20 17 225 -226 0
16 -20 17 -225 227 0
16 -20 17 -225 -227 0
10 -9 -8 228 229 0
10 -9 -8 228 -229 0
10 -9 -8 -228 230 0
10 -9 -8 -228 -230 0
-5 -18 10 231 232 0
-5 -18 10 231 -232 0
-5 -18 10 -231 233 0
-5 -18 10 -231 -233 0
-18 -1 -9 234 235 0
-18 -1 -9 234 -235 0
-18 -1 -9 -234 236 0
-18 -1 -9 -234 -236 0
-13 10 19 237 238 0
-13 10 19 237 -238 0
-13 10 19 -237 239 0
-13 10 19 -237 -239 0
-7 -9 -18 240 241 0
-7 -9 -18 240 -241 0
-7 -9 -18 -240 242 0
-7 -9 -18 -240 -242 0
-3 8 5 243 244 0
-3 8 5 243 -244 0
-3 8 5 -243 245 0
-3 8 5 -243 -245 0
17 -4 -12 246 247 0
17 -4 -12 246 -247 0
17 -4 -12 -246 248 0
17 -4 -12 -246 -248 0
-5 15 -4 249 250 0
-5 15 -4 249 -250 0
-5 15 -4 -249 251 0
-5 15 -4 -249 -251 0
10 16 -5 252 253 0
10 16 -5 252 -253 0
10 16 -5 -252 254 0
10 16 -5 -252 -254 0
9 14 2 255 256 0
9 14 2 255 -256 0
9 14 2 -255 257 0
9 14 2 -255 -257 0
3 -9 8 258 259 0
3 -9 8 258 -259 0
3 -9 8 -258 260 0
3 -9 8 -258 -260 0
-18 -20 5 261 262 0
-18 -20 5 261 -262 0
-18 -20 5 -261 263 0
-18 -20 5 -261 -263 0
-6 -19 -7 264 265 0
-6 -19 -7 264 -265 0
-6 -19 -7 -264 266 0
-6 -19 -7 -264 -266 0
-8 -19 -5 267 268 0
-8 -19 -5 267 -268 0
-8 -19 -5 -267 269 0
-8 -19 -5 -267 -269 0
-9 -13 19 270 271 0
-9 -13 19 270 -271 0
-9 -13 19 -270 272 0
-9 -13 19 -270 -272 0
4 -2 -9 273 274 0
4 -2 -9 273 -274 0
4 -2 -9 -273 275 0
4 -2 -9 -273 -275 0
2 14 -18 276 277 0
2 14 -18 276 -277 0
2 14 -18 -276 278 0
2 14 -18 -276 -278 0
17 10 12 279 280 0
17 10 12 279 -280 0
17 10 12 -279 281 0
17 10 12 -279 -281 0
20 10 -4 282 283 0
20 10 -4 282 -283 0
20 10 -4 -282 284 0
20 10 -4 -282 -284 0
-18 13 8 285 286 0
-18 13 8 285 -286 0
-18 13 8 -285 287 0
-18 13 8 -285 -287 0
18 -11 -4 288 289 0
18 -11 -4 288 -289 0
18 -11 -4 -288 290 0
18 -11 -4 -288 -290 0
4 16 -13 291 292 0
4 16 -13 291 -292 0
4 16 -13 -291 293 0
4 16 -13 -291 -293 0
294 295 297 301 309 0
294 295 297 301 -309 0
294 295 297 -301 310 0
294 295 297 -301 -310 0
294 295 -297 302 311 0
294 295 -297 302 -311 0
294 295 -297 -302 312 0
294 295 -297 -302 -312 0
294 -295 298 303 313 0
294 -295 298 303 -313 0
294 -295 298 -303 314 0
294 -295 298 -303 -314 0
294 -295 -298 304 315 0
294 -295 -298 304 -315 0
294 -295 -298 -304 316 0
294 -295 -298 -304 -316 0
-294 296 299 305 317 0
-294 296 299 305 -317 0
-294 296 299 -305 318 0
-294 296 299 -305 -318 0
-294 296 -299 306 319 0
-294 296 -299 306 -319 0
-294 296 -299 -306 320 0
-294 296 -299 -306 -320 0
-294 -296 300 307 321 0
-294 -296 300 307 -321 0
-294 -296 300 -307 322 0
-294 -296 300 -307 -322 0
-294 -296 -300 308 323 0
-294 -296 -300 308 -323 0
-294 -296 -300 -308 324 0
-294 -296 -300 -308 -324 0
325 326 328 332 340 0
325 326 328 332 -340 0
325 326 328 -332 341 0
325 326 328 -332 -341 0
325 326 -328 333 342 0
325 326 -328 333 -342 0
325 326 -328 -333 343 0
325 326 -328 -333 -343 0
325 -326 329 334 344 0
325 -326 329 334 -344 0
325 -326 329 -334 345 0
325 -326 329 -334 -345 0
325 -326 -329 335 346 0
325 -326 -329 335 -346 0
325 -326 -329 -335 347 0
325 -326 -329 -335 -347 0
-325 327 330 336 348 0
-325 327 330 336 -348 0
-325 327 330 -336 349 0
-325 327 330 -336 -349 0
-325 327 -330 337 350 0
-325 327 -330 337 -350 0
-325 327 -330 -337 351 0
-325 327 -330 -337 -351 0
-325 -327 331 338 352 0
-325 -327 331 338 -352 0
-325 -327 331 -338 353 0
-325 -327 331 -338 -353 0
-325 -327 -331 339 354 0
-325 -327 -331 339 -354 0
-325 -327 -331 -339 355 0
-325 -327 -331 -339 -355 0
356 357 359 363 371 0
356 357 359 363 -371 0
356 357 359 -363 372 0
356 357 359 -363 -372 0
356 357 -359 364 373 0
356 357 -359 364 -373 0
356 357 -359 -364 374 0
356 357 -359 -364 -374 0
356 -357 360 365 375 0
356 -357 360 365 -375 0
356 -357 360 -365 376 0
356 -357 360 -365 -376 0
356 -357 -360 366 377 0
356 -357 -360 366 -377 0
356 -357 -360 -366 378 0
356 -357 -360 -366 -378 0
-356 358 361 367 379 0
-356 358 361 367 -379 0
-356 358 361 -367 380 0
-356 358 361 -367 -380 0
-356 358 -361 368 381 0
-356 358 -361 368 -381 0
-356 358 -361 -368 382 0
-356 358 -361 -368 -382 0
-356 -358 362 369 383 0
-356 -358 362 369 -383 0
-356 -358 362 -369 384 0
-356 -358 362 -369 -384 0
-356 -358 -362 370 385 0
-356 -358 -362 370 -385 0
-356 -358 -362 -370 386 0
-356 -358 -362 -370 -386 0

